p cnf 181 266               
-2 -1 -31 0
31 -89 0
-1 32 0
-2 32 0
1 2 -32 0
-32 -3 -33 0
33 -89 0
-3 34 0
-32 34 0
3 32 -34 0
-34 -4 -35 0
35 -89 0
-4 36 0
-34 36 0
4 34 -36 0
-36 -5 -37 0
37 -89 0
-5 38 0
-36 38 0
5 36 -38 0
-38 -6 -39 0
39 -89 0
-6 40 0
-38 40 0
6 38 -40 0
-40 -7 -41 0
41 -89 0
-7 42 0
-40 42 0
7 40 -42 0
-42 -8 -43 0
43 -89 0
-8 44 0
-42 44 0
8 42 -44 0
-44 -9 -45 0
45 -89 0
-9 46 0
-44 46 0
9 44 -46 0
-46 -10 -47 0
47 -89 0
-10 48 0
-46 48 0
10 46 -48 0
-48 -11 -49 0
49 -89 0
-11 50 0
-48 50 0
11 48 -50 0
-50 -12 -51 0
51 -89 0
-12 52 0
-50 52 0
12 50 -52 0
-52 -13 -53 0
53 -89 0
-13 54 0
-52 54 0
13 52 -54 0
-54 -14 -55 0
55 -89 0
-14 56 0
-54 56 0
14 54 -56 0
-56 -15 -57 0
57 -89 0
-15 58 0
-56 58 0
15 56 -58 0
-58 -16 -59 0
59 -89 0
-16 60 0
-58 60 0
16 58 -60 0
-60 -17 -61 0
61 -89 0
-17 62 0
-60 62 0
17 60 -62 0
-62 -18 -63 0
63 -89 0
-18 64 0
-62 64 0
18 62 -64 0
-64 -19 -65 0
65 -89 0
-19 66 0
-64 66 0
19 64 -66 0
-66 -20 -67 0
67 -89 0
-20 68 0
-66 68 0
20 66 -68 0
-68 -21 -69 0
69 -89 0
-21 70 0
-68 70 0
21 68 -70 0
-70 -22 -71 0
71 -89 0
-22 72 0
-70 72 0
22 70 -72 0
-72 -23 -73 0
73 -89 0
-23 74 0
-72 74 0
23 72 -74 0
-74 -24 -75 0
75 -89 0
-24 76 0
-74 76 0
24 74 -76 0
-76 -25 -77 0
77 -89 0
-25 78 0
-76 78 0
25 76 -78 0
-78 -26 -79 0
79 -89 0
-26 80 0
-78 80 0
26 78 -80 0
-80 -27 -81 0
81 -89 0
-27 82 0
-80 82 0
27 80 -82 0
-82 -28 -83 0
83 -89 0
-28 84 0
-82 84 0
28 82 -84 0
-84 -29 -85 0
85 -89 0
-29 86 0
-84 86 0
29 84 -86 0
-86 -30 -87 0
87 -89 0
30 86 -88 0
88 -89 0
89 -121 0
-1 2 3 4 5 6 7 8 9 10 11 12 13 14 15 16 17 18 19 20 21 22 23 24 25 26 27 28 29 30 -90 0
90 -120 0
-2 1 3 4 5 6 7 8 9 10 11 12 13 14 15 16 17 18 19 20 21 22 23 24 25 26 27 28 29 30 -91 0
91 -120 0
-3 1 2 4 5 6 7 8 9 10 11 12 13 14 15 16 17 18 19 20 21 22 23 24 25 26 27 28 29 30 -92 0
92 -120 0
-4 1 2 3 5 6 7 8 9 10 11 12 13 14 15 16 17 18 19 20 21 22 23 24 25 26 27 28 29 30 -93 0
93 -120 0
-5 1 2 3 4 6 7 8 9 10 11 12 13 14 15 16 17 18 19 20 21 22 23 24 25 26 27 28 29 30 -94 0
94 -120 0
-6 1 2 3 4 5 7 8 9 10 11 12 13 14 15 16 17 18 19 20 21 22 23 24 25 26 27 28 29 30 -95 0
95 -120 0
-7 1 2 3 4 5 6 8 9 10 11 12 13 14 15 16 17 18 19 20 21 22 23 24 25 26 27 28 29 30 -96 0
96 -120 0
-8 1 2 3 4 5 6 7 9 10 11 12 13 14 15 16 17 18 19 20 21 22 23 24 25 26 27 28 29 30 -97 0
97 -120 0
-9 1 2 3 4 5 6 7 8 10 11 12 13 14 15 16 17 18 19 20 21 22 23 24 25 26 27 28 29 30 -98 0
98 -120 0
-10 1 2 3 4 5 6 7 8 9 11 12 13 14 15 16 17 18 19 20 21 22 23 24 25 26 27 28 29 30 -99 0
99 -120 0
-11 1 2 3 4 5 6 7 8 9 10 12 13 14 15 16 17 18 19 20 21 22 23 24 25 26 27 28 29 30 -100 0
100 -120 0
-12 1 2 3 4 5 6 7 8 9 10 11 13 14 15 16 17 18 19 20 21 22 23 24 25 26 27 28 29 30 -101 0
101 -120 0
-13 1 2 3 4 5 6 7 8 9 10 11 12 14 15 16 17 18 19 20 21 22 23 24 25 26 27 28 29 30 -102 0
102 -120 0
-14 1 2 3 4 5 6 7 8 9 10 11 12 13 15 16 17 18 19 20 21 22 23 24 25 26 27 28 29 30 -103 0
103 -120 0
-15 1 2 3 4 5 6 7 8 9 10 11 12 13 14 16 17 18 19 20 21 22 23 24 25 26 27 28 29 30 -104 0
104 -120 0
-16 1 2 3 4 5 6 7 8 9 10 11 12 13 14 15 17 18 19 20 21 22 23 24 25 26 27 28 29 30 -105 0
105 -120 0
-17 1 2 3 4 5 6 7 8 9 10 11 12 13 14 15 16 18 19 20 21 22 23 24 25 26 27 28 29 30 -106 0
106 -120 0
-18 1 2 3 4 5 6 7 8 9 10 11 12 13 14 15 16 17 19 20 21 22 23 24 25 26 27 28 29 30 -107 0
107 -120 0
-19 1 2 3 4 5 6 7 8 9 10 11 12 13 14 15 16 17 18 20 21 22 23 24 25 26 27 28 29 30 -108 0
108 -120 0
-20 1 2 3 4 5 6 7 8 9 10 11 12 13 14 15 16 17 18 19 21 22 23 24 25 26 27 28 29 30 -109 0
109 -120 0
-21 1 2 3 4 5 6 7 8 9 10 11 12 13 14 15 16 17 18 19 20 22 23 24 25 26 27 28 29 30 -110 0
110 -120 0
-22 1 2 3 4 5 6 7 8 9 10 11 12 13 14 15 16 17 18 19 20 21 23 24 25 26 27 28 29 30 -111 0
111 -120 0
-23 1 2 3 4 5 6 7 8 9 10 11 12 13 14 15 16 17 18 19 20 21 22 24 25 26 27 28 29 30 -112 0
112 -120 0
-24 1 2 3 4 5 6 7 8 9 10 11 12 13 14 15 16 17 18 19 20 21 22 23 25 26 27 28 29 30 -113 0
113 -120 0
-25 1 2 3 4 5 6 7 8 9 10 11 12 13 14 15 16 17 18 19 20 21 22 23 24 26 27 28 29 30 -114 0
114 -120 0
-26 1 2 3 4 5 6 7 8 9 10 11 12 13 14 15 16 17 18 19 20 21 22 23 24 25 27 28 29 30 -115 0
115 -120 0
-27 1 2 3 4 5 6 7 8 9 10 11 12 13 14 15 16 17 18 19 20 21 22 23 24 25 26 28 29 30 -116 0
116 -120 0
-28 1 2 3 4 5 6 7 8 9 10 11 12 13 14 15 16 17 18 19 20 21 22 23 24 25 26 27 29 30 -117 0
117 -120 0
-29 1 2 3 4 5 6 7 8 9 10 11 12 13 14 15 16 17 18 19 20 21 22 23 24 25 26 27 28 30 -118 0
118 -120 0
-30 1 2 3 4 5 6 7 8 9 10 11 12 13 14 15 16 17 18 19 20 21 22 23 24 25 26 27 28 29 -119 0
119 -120 0
120 -121 0
-1 2 -122 0
122 -180 0
-2 3 -124 0
124 -180 0
-3 4 -126 0
126 -180 0
-4 5 -128 0
128 -180 0
-5 6 -130 0
130 -180 0
-6 7 -132 0
132 -180 0
-7 8 -134 0
134 -180 0
-8 9 -136 0
136 -180 0
-9 10 -138 0
138 -180 0
-10 11 -140 0
140 -180 0
-11 12 -142 0
142 -180 0
-12 13 -144 0
144 -180 0
-13 14 -146 0
146 -180 0
-14 15 -148 0
148 -180 0
-15 16 -150 0
150 -180 0
-16 17 -152 0
152 -180 0
-17 18 -154 0
154 -180 0
-18 19 -156 0
156 -180 0
-19 20 -158 0
158 -180 0
-20 21 -160 0
160 -180 0
-21 22 -162 0
162 -180 0
-22 23 -164 0
164 -180 0
-23 24 -166 0
166 -180 0
-24 25 -168 0
168 -180 0
-25 26 -170 0
170 -180 0
-26 27 -172 0
172 -180 0
-27 28 -174 0
174 -180 0
-28 29 -176 0
176 -180 0
-29 30 -178 0
178 -180 0
121 0
180 0
